\ LP format - for model browsing. Use MPS format to capture full model detail.
Minimize
  0 y(0) + 0 y(1) + 0 y(3) + y(31) + 0 d(0) + 0 d(31) - 18 releaseDateAndCP
Subject To
 resR(0,0): 8 x(1,0,0) + 5 x(2,0,0) <= 24
 resR(0,1): 5 x(2,0,1) + 8 x(8,1,1) + 8 x(11,0,1) + 5 x(13,0,1) <= 24
 resR(0,2): 9 x(6,1,2) + 8 x(8,1,1) + 8 x(8,1,2) + 7 x(9,0,2) + 8 x(11,0,1)
   + 8 x(11,0,2) + 5 x(13,0,1) + 5 x(13,0,2) <= 24
 resR(0,3): 9 x(6,1,2) + 9 x(6,1,3) + 8 x(8,1,2) + 7 x(9,0,2) + 7 x(9,0,3)
   + 8 x(11,0,1) + 8 x(11,0,2) + 5 x(13,0,1) + 5 x(13,0,2) + 5 x(13,0,3)
   + 9 x(14,0,3) <= 24
 resR(0,4): 9 x(6,1,2) + 9 x(6,1,3) + 9 x(6,1,4) + 7 x(9,0,2) + 7 x(9,0,3)
   + 8 x(10,0,4) + 7 x(10,1,4) + 8 x(11,0,2) + 5 x(13,0,1) + 5 x(13,0,2)
   + 5 x(13,0,3) + 9 x(14,0,4) + 8 x(15,0,4) + 7 x(19,0,4) <= 24
 resR(0,5): 9 x(6,1,3) + 9 x(6,1,4) + 9 x(6,1,5) + 7 x(9,0,2) + 7 x(9,0,3)
   + 8 x(10,0,5) + 7 x(10,1,4) + 7 x(10,1,5) + 5 x(13,0,2) + 5 x(13,0,3)
   + 8 x(15,0,4) + 8 x(15,0,5) + 7 x(19,0,4) + 7 x(19,0,5) <= 24
 resR(0,6): 9 x(6,1,4) + 9 x(6,1,5) + 7 x(9,0,3) + 8 x(10,0,6)
   + 7 x(10,1,5) + 7 x(10,1,6) + 5 x(13,0,3) + 8 x(15,0,4) + 8 x(15,0,5)
   + 9 x(17,2,6) + 7 x(19,0,4) + 7 x(19,0,5) + 7 x(19,0,6) <= 24
 resR(0,7): 9 x(6,1,5) + 8 x(10,0,7) + 7 x(10,1,6) + 7 x(10,1,7)
   + 8 x(15,0,4) + 8 x(15,0,5) + 6 x(16,0,7) + 6 x(16,1,7) + 9 x(17,2,6)
   + 9 x(17,2,7) + 8 x(18,0,7) + 7 x(19,0,5) + 7 x(19,0,6) + 7 x(19,0,7)
   <= 24
 resR(0,8): 8 x(10,0,8) + 7 x(10,1,7) + 7 x(10,1,8) + 8 x(15,0,4)
   + 8 x(15,0,5) + 6 x(16,0,8) + 6 x(16,1,7) + 6 x(16,1,8) + 9 x(17,2,6)
   + 9 x(17,2,7) + 7 x(19,0,6) + 7 x(19,0,7) + 7 x(19,0,8) + 8 x(23,0,8)
   <= 24
 resR(0,9): 8 x(10,0,9) + 7 x(10,1,8) + 7 x(10,1,9) + 8 x(15,0,4)
   + 8 x(15,0,5) + 6 x(16,0,9) + 6 x(16,1,7) + 6 x(16,1,8) + 6 x(16,1,9)
   + 9 x(17,2,6) + 9 x(17,2,7) + 7 x(19,0,7) + 7 x(19,0,8) + 8 x(23,0,8)
   <= 24
 resR(0,10): 8 x(10,0,10) + 7 x(10,1,9) + 7 x(10,1,10) + 8 x(15,0,5)
   + 6 x(16,0,10) + 6 x(16,1,7) + 6 x(16,1,8) + 6 x(16,1,9) + 9 x(17,2,6)
   + 9 x(17,2,7) + 7 x(19,0,8) + 2 x(20,0,10) + 9 x(22,0,10) + 8 x(23,0,8)
   + 6 x(24,0,10) <= 24
 resR(0,11): 8 x(10,0,11) + 7 x(10,1,10) + 7 x(10,1,11) + 6 x(16,0,11)
   + 6 x(16,1,8) + 6 x(16,1,9) + 9 x(17,2,6) + 9 x(17,2,7) + 2 x(20,0,10)
   + 2 x(20,0,11) + 9 x(22,0,11) + 8 x(23,0,8) + 6 x(24,0,11) + x(27,0,11)
   <= 24
 resR(0,12): 8 x(10,0,12) + 7 x(10,1,11) + 7 x(10,1,12) + 6 x(16,0,12)
   + 6 x(16,1,9) + 9 x(17,2,6) + 9 x(17,2,7) + 2 x(20,0,11) + 9 x(22,0,12)
   + 8 x(23,0,8) + 6 x(26,1,12) + 6 x(26,2,12) + x(27,0,11) + x(27,0,12)
   <= 24
 resR(0,13): 8 x(10,0,13) + 7 x(10,1,12) + 9 x(17,2,6) + 9 x(17,2,7)
   + 9 x(22,0,13) + 6 x(26,1,12) + 6 x(26,1,13) + 6 x(26,2,12) + x(27,0,11)
   + x(27,0,12) + x(27,0,13) <= 24
 resR(0,14): 9 x(17,2,6) + 9 x(17,2,7) + 6 x(26,1,12) + 6 x(26,1,13)
   + 6 x(26,2,12) + x(27,0,12) + x(27,0,13) + x(27,0,14) + 7 x(28,1,14)
   <= 24
 resR(0,15): 9 x(17,2,6) + 9 x(17,2,7) + 6 x(26,1,12) + 6 x(26,1,13)
   + 6 x(26,2,12) + x(27,0,13) + x(27,0,14) + 7 x(28,1,14) + 7 x(28,1,15)
   <= 24
 resR(0,16): 9 x(17,2,7) + 6 x(26,1,13) + 6 x(26,2,12) + x(27,0,14)
   + 7 x(28,1,14) + 7 x(28,1,15) <= 24
 resR(0,17): 7 x(28,1,15) <= 24
 resR(1,0): x(3,0,0) <= 25
 resR(1,1): x(3,0,0) + 6 x(4,0,1) + 10 x(4,1,1) + 4 x(4,2,1) + 8 x(5,0,1)
   + 5 x(7,0,1) + 5 x(8,0,1) + 6 x(11,1,1) + 8 x(13,1,1) <= 25
 resR(1,2): x(3,0,0) + 6 x(4,0,1) + 6 x(4,0,2) + 10 x(4,1,1) + 10 x(4,1,2)
   + 4 x(4,2,1) + 4 x(4,2,2) + 8 x(5,0,2) + x(6,0,2) + 5 x(7,0,1)
   + 5 x(8,0,1) + 5 x(8,0,2) + 6 x(11,1,1) + 8 x(13,1,1) + 8 x(13,1,2)
   <= 25
 resR(1,3): x(3,0,0) + 6 x(4,0,2) + 6 x(4,0,3) + 10 x(4,1,2) + 10 x(4,1,3)
   + 4 x(4,2,1) + 4 x(4,2,2) + 4 x(4,2,3) + x(6,0,3) + 5 x(7,0,1)
   + 5 x(8,0,2) + 6 x(11,1,1) + 8 x(13,1,1) + 8 x(13,1,2) + 8 x(13,1,3)
   <= 25
 resR(1,4): 6 x(4,0,3) + 6 x(4,0,4) + 10 x(4,1,3) + 10 x(4,1,4)
   + 4 x(4,2,1) + 4 x(4,2,2) + 4 x(4,2,3) + x(6,0,4) + 3 x(10,2,4)
   + 6 x(11,1,1) + 3 x(12,0,4) + 8 x(13,1,1) + 8 x(13,1,2) + 8 x(13,1,3)
   + 6 x(15,1,4) <= 25
 resR(1,5): 6 x(4,0,4) + 6 x(4,0,5) + 10 x(4,1,4) + 10 x(4,1,5)
   + 4 x(4,2,1) + 4 x(4,2,2) + 4 x(4,2,3) + x(6,0,5) + 3 x(10,2,4)
   + 3 x(10,2,5) + 3 x(12,0,4) + 8 x(13,1,2) + 8 x(13,1,3) + 6 x(15,1,4)
   <= 25
 resR(1,6): 6 x(4,0,5) + 6 x(4,0,6) + 10 x(4,1,5) + 10 x(4,1,6)
   + 4 x(4,2,1) + 4 x(4,2,2) + 4 x(4,2,3) + x(6,0,6) + 3 x(10,2,4)
   + 3 x(10,2,5) + 3 x(10,2,6) + 3 x(12,0,4) + 8 x(13,1,3) + 6 x(15,1,4)
   + 8 x(17,0,6) + 4 x(17,1,6) + 10 x(21,0,6) <= 25
 resR(1,7): 6 x(4,0,6) + 6 x(4,0,7) + 10 x(4,1,6) + 10 x(4,1,7)
   + 4 x(4,2,1) + 4 x(4,2,2) + 4 x(4,2,3) + x(6,0,7) + 3 x(10,2,4)
   + 3 x(10,2,5) + 3 x(10,2,6) + 6 x(15,1,4) + 8 x(17,0,7) + 4 x(17,1,6)
   + 4 x(17,1,7) + 10 x(21,0,6) + 10 x(21,0,7) <= 25
 resR(1,8): 6 x(4,0,7) + 6 x(4,0,8) + 10 x(4,1,7) + 10 x(4,1,8)
   + 4 x(4,2,1) + 4 x(4,2,2) + 4 x(4,2,3) + 3 x(10,2,4) + 3 x(10,2,5)
   + 3 x(10,2,6) + 6 x(15,1,4) + 8 x(17,0,8) + 4 x(17,1,6) + 4 x(17,1,7)
   + 4 x(17,1,8) + 10 x(21,0,6) + 10 x(21,0,7) <= 25
 resR(1,9): 6 x(4,0,8) + 6 x(4,0,9) + 10 x(4,1,8) + 10 x(4,1,9)
   + 4 x(4,2,2) + 4 x(4,2,3) + 3 x(10,2,4) + 3 x(10,2,5) + 3 x(10,2,6)
   + 6 x(15,1,4) + 8 x(17,0,9) + 4 x(17,1,6) + 4 x(17,1,7) + 4 x(17,1,8)
   + 4 x(17,1,9) + 10 x(21,0,6) + 10 x(21,0,7) <= 25
 resR(1,10): 6 x(4,0,9) + 10 x(4,1,9) + 4 x(4,2,3) + 3 x(10,2,4)
   + 3 x(10,2,5) + 3 x(10,2,6) + 6 x(15,1,4) + 8 x(17,0,10) + 4 x(17,1,6)
   + 4 x(17,1,7) + 4 x(17,1,8) + 4 x(17,1,9) + 4 x(17,1,10) + 10 x(21,0,7)
   + 7 x(22,1,10) + 9 x(24,1,10) <= 25
 resR(1,11): 3 x(10,2,4) + 3 x(10,2,5) + 3 x(10,2,6) + 8 x(17,0,11)
   + 4 x(17,1,6) + 4 x(17,1,7) + 4 x(17,1,8) + 4 x(17,1,9) + 4 x(17,1,10)
   + 4 x(17,1,11) + 7 x(22,1,10) + 9 x(24,1,11) + 7 x(27,1,11)
   + 9 x(30,0,11) <= 25
 resR(1,12): 3 x(10,2,5) + 3 x(10,2,6) + 8 x(17,0,12) + 4 x(17,1,7)
   + 4 x(17,1,8) + 4 x(17,1,9) + 4 x(17,1,10) + 4 x(17,1,11) + 7 x(22,1,10)
   + 2 x(26,0,12) + 7 x(27,1,11) + 7 x(27,1,12) + 9 x(30,0,11)
   + 9 x(30,0,12) <= 25
 resR(1,13): 3 x(10,2,6) + 8 x(17,0,13) + 4 x(17,1,8) + 4 x(17,1,9)
   + 4 x(17,1,10) + 4 x(17,1,11) + 7 x(22,1,10) + 3 x(25,0,13)
   + 2 x(26,0,13) + 7 x(27,1,11) + 7 x(27,1,12) + 9 x(30,0,11)
   + 9 x(30,0,12) <= 25
 resR(1,14): 8 x(17,0,14) + 4 x(17,1,9) + 4 x(17,1,10) + 4 x(17,1,11)
   + 3 x(25,0,13) + 2 x(26,0,14) + 7 x(27,1,11) + 7 x(27,1,12)
   + 6 x(28,0,14) + 9 x(30,0,11) + 9 x(30,0,12) <= 25
 resR(1,15): 8 x(17,0,15) + 4 x(17,1,10) + 4 x(17,1,11) + 3 x(25,0,13)
   + 2 x(26,0,15) + 7 x(27,1,11) + 7 x(27,1,12) + 6 x(28,0,15)
   + 9 x(30,0,11) + 9 x(30,0,12) <= 25
 resR(1,16): 8 x(17,0,16) + 4 x(17,1,11) + 3 x(25,0,13) + 2 x(26,0,16)
   + 7 x(27,1,12) + 6 x(28,0,16) + 9 x(30,0,11) + 9 x(30,0,12) <= 25
 resR(1,17): 6 x(28,0,17) + 9 x(29,0,17) + 9 x(30,0,12) <= 25
 modeSel(0): x(0,0,0) = 1
 modeSel(1): x(1,0,0) = 1
 modeSel(2): x(2,0,0) + x(2,0,1) = 1
 modeSel(3): x(3,0,0) = 1
 modeSel(4): x(4,0,1) + x(4,0,2) + x(4,0,3) + x(4,0,4) + x(4,0,5)
   + x(4,0,6) + x(4,0,7) + x(4,0,8) + x(4,0,9) + x(4,1,1) + x(4,1,2)
   + x(4,1,3) + x(4,1,4) + x(4,1,5) + x(4,1,6) + x(4,1,7) + x(4,1,8)
   + x(4,1,9) + x(4,2,1) + x(4,2,2) + x(4,2,3) = 1
 modeSel(5): x(5,0,1) + x(5,0,2) = 1
 modeSel(6): x(6,0,2) + x(6,0,3) + x(6,0,4) + x(6,0,5) + x(6,0,6)
   + x(6,0,7) + x(6,1,2) + x(6,1,3) + x(6,1,4) + x(6,1,5) = 1
 modeSel(7): x(7,0,1) = 1
 modeSel(8): x(8,0,1) + x(8,0,2) + x(8,1,1) + x(8,1,2) = 1
 modeSel(9): x(9,0,2) + x(9,0,3) = 1
 modeSel(10): x(10,0,4) + x(10,0,5) + x(10,0,6) + x(10,0,7) + x(10,0,8)
   + x(10,0,9) + x(10,0,10) + x(10,0,11) + x(10,0,12) + x(10,0,13)
   + x(10,1,4) + x(10,1,5) + x(10,1,6) + x(10,1,7) + x(10,1,8) + x(10,1,9)
   + x(10,1,10) + x(10,1,11) + x(10,1,12) + x(10,2,4) + x(10,2,5)
   + x(10,2,6) = 1
 modeSel(11): x(11,0,1) + x(11,0,2) + x(11,1,1) = 1
 modeSel(12): x(12,0,4) = 1
 modeSel(13): x(13,0,1) + x(13,0,2) + x(13,0,3) + x(13,1,1) + x(13,1,2)
   + x(13,1,3) = 1
 modeSel(14): x(14,0,3) + x(14,0,4) = 1
 modeSel(15): x(15,0,4) + x(15,0,5) + x(15,1,4) = 1
 modeSel(16): x(16,0,7) + x(16,0,8) + x(16,0,9) + x(16,0,10) + x(16,0,11)
   + x(16,0,12) + x(16,1,7) + x(16,1,8) + x(16,1,9) = 1
 modeSel(17): x(17,0,6) + x(17,0,7) + x(17,0,8) + x(17,0,9) + x(17,0,10)
   + x(17,0,11) + x(17,0,12) + x(17,0,13) + x(17,0,14) + x(17,0,15)
   + x(17,0,16) + x(17,1,6) + x(17,1,7) + x(17,1,8) + x(17,1,9)
   + x(17,1,10) + x(17,1,11) + x(17,2,6) + x(17,2,7) = 1
 modeSel(18): x(18,0,7) = 1
 modeSel(19): x(19,0,4) + x(19,0,5) + x(19,0,6) + x(19,0,7) + x(19,0,8)
   = 1
 modeSel(20): x(20,0,10) + x(20,0,11) = 1
 modeSel(21): x(21,0,6) + x(21,0,7) = 1
 modeSel(22): x(22,0,10) + x(22,0,11) + x(22,0,12) + x(22,0,13)
   + x(22,1,10) = 1
 modeSel(23): x(23,0,8) = 1
 modeSel(24): x(24,0,10) + x(24,0,11) + x(24,1,10) + x(24,1,11) = 1
 modeSel(25): x(25,0,13) = 1
 modeSel(26): x(26,0,12) + x(26,0,13) + x(26,0,14) + x(26,0,15)
   + x(26,0,16) + x(26,1,12) + x(26,1,13) + x(26,2,12) = 1
 modeSel(27): x(27,0,11) + x(27,0,12) + x(27,0,13) + x(27,0,14)
   + x(27,1,11) + x(27,1,12) = 1
 modeSel(28): x(28,0,14) + x(28,0,15) + x(28,0,16) + x(28,0,17)
   + x(28,1,14) + x(28,1,15) = 1
 modeSel(29): x(29,0,17) = 1
 modeSel(30): x(30,0,11) + x(30,0,12) = 1
 modeSel(31): x(31,0,18) = 1
 lnkXU(0,0): x(0,0,0) - u(0,0) = 0
 lnkXU(1,0): x(1,0,0) - u(1,0) = 0
 lnkXU(1,1): - u(1,1) = 0
 lnkXU(1,2): - u(1,2) = 0
 lnkXU(2,0): x(2,0,0) + x(2,0,1) - u(2,0) = 0
 lnkXU(2,1): - u(2,1) = 0
 lnkXU(2,2): - u(2,2) = 0
 lnkXU(3,0): x(3,0,0) - u(3,0) = 0
 lnkXU(3,1): - u(3,1) = 0
 lnkXU(3,2): - u(3,2) = 0
 lnkXU(4,0): x(4,0,1) + x(4,0,2) + x(4,0,3) + x(4,0,4) + x(4,0,5)
   + x(4,0,6) + x(4,0,7) + x(4,0,8) + x(4,0,9) - u(4,0) = 0
 lnkXU(4,1): x(4,1,1) + x(4,1,2) + x(4,1,3) + x(4,1,4) + x(4,1,5)
   + x(4,1,6) + x(4,1,7) + x(4,1,8) + x(4,1,9) - u(4,1) = 0
 lnkXU(4,2): x(4,2,1) + x(4,2,2) + x(4,2,3) - u(4,2) = 0
 lnkXU(5,0): x(5,0,1) + x(5,0,2) - u(5,0) = 0
 lnkXU(5,1): - u(5,1) = 0
 lnkXU(5,2): - u(5,2) = 0
 lnkXU(6,0): x(6,0,2) + x(6,0,3) + x(6,0,4) + x(6,0,5) + x(6,0,6)
   + x(6,0,7) - u(6,0) = 0
 lnkXU(6,1): x(6,1,2) + x(6,1,3) + x(6,1,4) + x(6,1,5) - u(6,1) = 0
 lnkXU(6,2): - u(6,2) = 0
 lnkXU(7,0): x(7,0,1) - u(7,0) = 0
 lnkXU(7,1): - u(7,1) = 0
 lnkXU(7,2): - u(7,2) = 0
 lnkXU(8,0): x(8,0,1) + x(8,0,2) - u(8,0) = 0
 lnkXU(8,1): x(8,1,1) + x(8,1,2) - u(8,1) = 0
 lnkXU(8,2): - u(8,2) = 0
 lnkXU(9,0): x(9,0,2) + x(9,0,3) - u(9,0) = 0
 lnkXU(9,1): - u(9,1) = 0
 lnkXU(9,2): - u(9,2) = 0
 lnkXU(10,0): x(10,0,4) + x(10,0,5) + x(10,0,6) + x(10,0,7) + x(10,0,8)
   + x(10,0,9) + x(10,0,10) + x(10,0,11) + x(10,0,12) + x(10,0,13)
   - u(10,0) = 0
 lnkXU(10,1): x(10,1,4) + x(10,1,5) + x(10,1,6) + x(10,1,7) + x(10,1,8)
   + x(10,1,9) + x(10,1,10) + x(10,1,11) + x(10,1,12) - u(10,1) = 0
 lnkXU(10,2): x(10,2,4) + x(10,2,5) + x(10,2,6) - u(10,2) = 0
 lnkXU(11,0): x(11,0,1) + x(11,0,2) - u(11,0) = 0
 lnkXU(11,1): x(11,1,1) - u(11,1) = 0
 lnkXU(11,2): - u(11,2) = 0
 lnkXU(12,0): x(12,0,4) - u(12,0) = 0
 lnkXU(12,1): - u(12,1) = 0
 lnkXU(12,2): - u(12,2) = 0
 lnkXU(13,0): x(13,0,1) + x(13,0,2) + x(13,0,3) - u(13,0) = 0
 lnkXU(13,1): x(13,1,1) + x(13,1,2) + x(13,1,3) - u(13,1) = 0
 lnkXU(13,2): - u(13,2) = 0
 lnkXU(14,0): x(14,0,3) + x(14,0,4) - u(14,0) = 0
 lnkXU(14,1): - u(14,1) = 0
 lnkXU(14,2): - u(14,2) = 0
 lnkXU(15,0): x(15,0,4) + x(15,0,5) - u(15,0) = 0
 lnkXU(15,1): x(15,1,4) - u(15,1) = 0
 lnkXU(15,2): - u(15,2) = 0
 lnkXU(16,0): x(16,0,7) + x(16,0,8) + x(16,0,9) + x(16,0,10) + x(16,0,11)
   + x(16,0,12) - u(16,0) = 0
 lnkXU(16,1): x(16,1,7) + x(16,1,8) + x(16,1,9) - u(16,1) = 0
 lnkXU(16,2): - u(16,2) = 0
 lnkXU(17,0): x(17,0,6) + x(17,0,7) + x(17,0,8) + x(17,0,9) + x(17,0,10)
   + x(17,0,11) + x(17,0,12) + x(17,0,13) + x(17,0,14) + x(17,0,15)
   + x(17,0,16) - u(17,0) = 0
 lnkXU(17,1): x(17,1,6) + x(17,1,7) + x(17,1,8) + x(17,1,9) + x(17,1,10)
   + x(17,1,11) - u(17,1) = 0
 lnkXU(17,2): x(17,2,6) + x(17,2,7) - u(17,2) = 0
 lnkXU(18,0): x(18,0,7) - u(18,0) = 0
 lnkXU(18,1): - u(18,1) = 0
 lnkXU(18,2): - u(18,2) = 0
 lnkXU(19,0): x(19,0,4) + x(19,0,5) + x(19,0,6) + x(19,0,7) + x(19,0,8)
   - u(19,0) = 0
 lnkXU(19,1): - u(19,1) = 0
 lnkXU(19,2): - u(19,2) = 0
 lnkXU(20,0): x(20,0,10) + x(20,0,11) - u(20,0) = 0
 lnkXU(20,1): - u(20,1) = 0
 lnkXU(20,2): - u(20,2) = 0
 lnkXU(21,0): x(21,0,6) + x(21,0,7) - u(21,0) = 0
 lnkXU(21,1): - u(21,1) = 0
 lnkXU(21,2): - u(21,2) = 0
 lnkXU(22,0): x(22,0,10) + x(22,0,11) + x(22,0,12) + x(22,0,13) - u(22,0)
   = 0
 lnkXU(22,1): x(22,1,10) - u(22,1) = 0
 lnkXU(22,2): - u(22,2) = 0
 lnkXU(23,0): x(23,0,8) - u(23,0) = 0
 lnkXU(23,1): - u(23,1) = 0
 lnkXU(23,2): - u(23,2) = 0
 lnkXU(24,0): x(24,0,10) + x(24,0,11) - u(24,0) = 0
 lnkXU(24,1): x(24,1,10) + x(24,1,11) - u(24,1) = 0
 lnkXU(24,2): - u(24,2) = 0
 lnkXU(25,0): x(25,0,13) - u(25,0) = 0
 lnkXU(25,1): - u(25,1) = 0
 lnkXU(25,2): - u(25,2) = 0
 lnkXU(26,0): x(26,0,12) + x(26,0,13) + x(26,0,14) + x(26,0,15)
   + x(26,0,16) - u(26,0) = 0
 lnkXU(26,1): x(26,1,12) + x(26,1,13) - u(26,1) = 0
 lnkXU(26,2): x(26,2,12) - u(26,2) = 0
 lnkXU(27,0): x(27,0,11) + x(27,0,12) + x(27,0,13) + x(27,0,14) - u(27,0)
   = 0
 lnkXU(27,1): x(27,1,11) + x(27,1,12) - u(27,1) = 0
 lnkXU(27,2): - u(27,2) = 0
 lnkXU(28,0): x(28,0,14) + x(28,0,15) + x(28,0,16) + x(28,0,17) - u(28,0)
   = 0
 lnkXU(28,1): x(28,1,14) + x(28,1,15) - u(28,1) = 0
 lnkXU(28,2): - u(28,2) = 0
 lnkXU(29,0): x(29,0,17) - u(29,0) = 0
 lnkXU(29,1): - u(29,1) = 0
 lnkXU(29,2): - u(29,2) = 0
 lnkXU(30,0): x(30,0,11) + x(30,0,12) - u(30,0) = 0
 lnkXU(30,1): - u(30,1) = 0
 lnkXU(30,2): - u(30,2) = 0
 lnkXU(31,0): x(31,0,18) - u(31,0) = 0
 resN(0): 9 u(1,0) + 7 u(1,2) + 7 u(2,0) + 5 u(2,1) + 6 u(3,2) + 4 u(4,1)
   + 2 u(4,2) + 3 u(5,2) + 3 u(6,0) + 3 u(7,0) + 10 u(8,0) + 9 u(8,2)
   + 7 u(9,1) + 8 u(10,0) + 4 u(10,1) + 6 u(11,0) + 5 u(11,2) + 7 u(12,1)
   + 3 u(13,0) + 3 u(13,1) + 3 u(13,2) + 4 u(14,0) + 5 u(15,1) + 4 u(15,2)
   + 8 u(16,2) + 7 u(17,1) + 6 u(17,2) + 6 u(18,1) + 4 u(18,2) + 3 u(19,1)
   + 3 u(19,2) + 5 u(20,0) + 4 u(21,0) + 4 u(21,1) + 4 u(21,2) + 10 u(22,0)
   + 6 u(22,2) + 8 u(23,0) + 7 u(23,1) + 7 u(23,2) + 7 u(24,0) + 4 u(24,1)
   + 10 u(25,1) + 9 u(25,2) + 4 u(26,0) + 2 u(26,1) + 10 u(27,0)
   + 4 u(27,1) + 2 u(27,2) + 8 u(28,0) + 8 u(28,1) + 6 u(28,2) + 6 u(29,0)
   + 5 u(29,1) + 2 u(29,2) + 8 u(30,0) + 5 u(30,1) + 2 u(30,2) <= 148
 resN(1): 6 u(1,1) + 6 u(2,2) + 8 u(3,0) + 7 u(3,1) + 4 u(4,0) + 3 u(5,0)
   + 3 u(5,1) + 3 u(6,1) + 2 u(6,2) + 5 u(7,1) + 5 u(7,2) + 4 u(8,1)
   + 6 u(9,0) + 2 u(9,2) + 7 u(10,2) + 5 u(11,1) + 9 u(12,0) + 4 u(12,2)
   + 8 u(14,1) + 4 u(14,2) + 4 u(15,0) + 8 u(16,0) + 7 u(16,1) + 4 u(17,0)
   + 7 u(18,0) + u(19,0) + 8 u(20,1) + 8 u(20,2) + 2 u(22,1) + 3 u(24,2)
   + 6 u(25,0) + 5 u(26,2) <= 92
 lnkXY(2): x(2,0,1) - y(2) = 0
 lnkXY(4): x(4,0,1) + 2 x(4,0,2) + 3 x(4,0,3) + 4 x(4,0,4) + 5 x(4,0,5)
   + 6 x(4,0,6) + 7 x(4,0,7) + 8 x(4,0,8) + 9 x(4,0,9) + x(4,1,1)
   + 2 x(4,1,2) + 3 x(4,1,3) + 4 x(4,1,4) + 5 x(4,1,5) + 6 x(4,1,6)
   + 7 x(4,1,7) + 8 x(4,1,8) + 9 x(4,1,9) + x(4,2,1) + 2 x(4,2,2)
   + 3 x(4,2,3) - y(4) = 0
 lnkXY(5): x(5,0,1) + 2 x(5,0,2) - y(5) = 0
 lnkXY(6): 2 x(6,0,2) + 3 x(6,0,3) + 4 x(6,0,4) + 5 x(6,0,5) + 6 x(6,0,6)
   + 7 x(6,0,7) + 2 x(6,1,2) + 3 x(6,1,3) + 4 x(6,1,4) + 5 x(6,1,5) - y(6)
   = 0
 lnkXY(7): x(7,0,1) - y(7) = 0
 lnkXY(8): x(8,0,1) + 2 x(8,0,2) + x(8,1,1) + 2 x(8,1,2) - y(8) = 0
 lnkXY(9): 2 x(9,0,2) + 3 x(9,0,3) - y(9) = 0
 lnkXY(10): 4 x(10,0,4) + 5 x(10,0,5) + 6 x(10,0,6) + 7 x(10,0,7)
   + 8 x(10,0,8) + 9 x(10,0,9) + 10 x(10,0,10) + 11 x(10,0,11)
   + 12 x(10,0,12) + 13 x(10,0,13) + 4 x(10,1,4) + 5 x(10,1,5)
   + 6 x(10,1,6) + 7 x(10,1,7) + 8 x(10,1,8) + 9 x(10,1,9) + 10 x(10,1,10)
   + 11 x(10,1,11) + 12 x(10,1,12) + 4 x(10,2,4) + 5 x(10,2,5)
   + 6 x(10,2,6) - y(10) = 0
 lnkXY(11): x(11,0,1) + 2 x(11,0,2) + x(11,1,1) - y(11) = 0
 lnkXY(12): 4 x(12,0,4) - y(12) = 0
 lnkXY(13): x(13,0,1) + 2 x(13,0,2) + 3 x(13,0,3) + x(13,1,1) + 2 x(13,1,2)
   + 3 x(13,1,3) - y(13) = 0
 lnkXY(14): 3 x(14,0,3) + 4 x(14,0,4) - y(14) = 0
 lnkXY(15): 4 x(15,0,4) + 5 x(15,0,5) + 4 x(15,1,4) - y(15) = 0
 lnkXY(16): 7 x(16,0,7) + 8 x(16,0,8) + 9 x(16,0,9) + 10 x(16,0,10)
   + 11 x(16,0,11) + 12 x(16,0,12) + 7 x(16,1,7) + 8 x(16,1,8)
   + 9 x(16,1,9) - y(16) = 0
 lnkXY(17): 6 x(17,0,6) + 7 x(17,0,7) + 8 x(17,0,8) + 9 x(17,0,9)
   + 10 x(17,0,10) + 11 x(17,0,11) + 12 x(17,0,12) + 13 x(17,0,13)
   + 14 x(17,0,14) + 15 x(17,0,15) + 16 x(17,0,16) + 6 x(17,1,6)
   + 7 x(17,1,7) + 8 x(17,1,8) + 9 x(17,1,9) + 10 x(17,1,10)
   + 11 x(17,1,11) + 6 x(17,2,6) + 7 x(17,2,7) - y(17) = 0
 lnkXY(18): 7 x(18,0,7) - y(18) = 0
 lnkXY(19): 4 x(19,0,4) + 5 x(19,0,5) + 6 x(19,0,6) + 7 x(19,0,7)
   + 8 x(19,0,8) - y(19) = 0
 lnkXY(20): 10 x(20,0,10) + 11 x(20,0,11) - y(20) = 0
 lnkXY(21): 6 x(21,0,6) + 7 x(21,0,7) - y(21) = 0
 lnkXY(22): 10 x(22,0,10) + 11 x(22,0,11) + 12 x(22,0,12) + 13 x(22,0,13)
   + 10 x(22,1,10) - y(22) = 0
 lnkXY(23): 8 x(23,0,8) - y(23) = 0
 lnkXY(24): 10 x(24,0,10) + 11 x(24,0,11) + 10 x(24,1,10) + 11 x(24,1,11)
   - y(24) = 0
 lnkXY(25): 13 x(25,0,13) - y(25) = 0
 lnkXY(26): 12 x(26,0,12) + 13 x(26,0,13) + 14 x(26,0,14) + 15 x(26,0,15)
   + 16 x(26,0,16) + 12 x(26,1,12) + 13 x(26,1,13) + 12 x(26,2,12) - y(26)
   = 0
 lnkXY(27): 11 x(27,0,11) + 12 x(27,0,12) + 13 x(27,0,13) + 14 x(27,0,14)
   + 11 x(27,1,11) + 12 x(27,1,12) - y(27) = 0
 lnkXY(28): 14 x(28,0,14) + 15 x(28,0,15) + 16 x(28,0,16) + 17 x(28,0,17)
   + 14 x(28,1,14) + 15 x(28,1,15) - y(28) = 0
 lnkXY(29): 17 x(29,0,17) - y(29) = 0
 lnkXY(30): 11 x(30,0,11) + 12 x(30,0,12) - y(30) = 0
 lnkXY(31): 18 x(31,0,18) - y(31) = 0
 lnkXD(1): x(1,0,0) - d(1) = 0
 lnkXD(2): x(2,0,0) + x(2,0,1) - d(2) = 0
 lnkXD(3): 4 x(3,0,0) - d(3) = 0
 lnkXD(4): 2 x(4,0,1) + 2 x(4,0,2) + 2 x(4,0,3) + 2 x(4,0,4) + 2 x(4,0,5)
   + 2 x(4,0,6) + 2 x(4,0,7) + 2 x(4,0,8) + 2 x(4,0,9) + 2 x(4,1,1)
   + 2 x(4,1,2) + 2 x(4,1,3) + 2 x(4,1,4) + 2 x(4,1,5) + 2 x(4,1,6)
   + 2 x(4,1,7) + 2 x(4,1,8) + 2 x(4,1,9) + 8 x(4,2,1) + 8 x(4,2,2)
   + 8 x(4,2,3) - d(4) = 0
 lnkXD(5): x(5,0,1) + x(5,0,2) - d(5) = 0
 lnkXD(6): x(6,0,2) + x(6,0,3) + x(6,0,4) + x(6,0,5) + x(6,0,6) + x(6,0,7)
   + 3 x(6,1,2) + 3 x(6,1,3) + 3 x(6,1,4) + 3 x(6,1,5) - d(6) = 0
 lnkXD(7): 3 x(7,0,1) - d(7) = 0
 lnkXD(8): 2 x(8,0,1) + 2 x(8,0,2) + 2 x(8,1,1) + 2 x(8,1,2) - d(8) = 0
 lnkXD(9): 4 x(9,0,2) + 4 x(9,0,3) - d(9) = 0
 lnkXD(10): x(10,0,4) + x(10,0,5) + x(10,0,6) + x(10,0,7) + x(10,0,8)
   + x(10,0,9) + x(10,0,10) + x(10,0,11) + x(10,0,12) + x(10,0,13)
   + 2 x(10,1,4) + 2 x(10,1,5) + 2 x(10,1,6) + 2 x(10,1,7) + 2 x(10,1,8)
   + 2 x(10,1,9) + 2 x(10,1,10) + 2 x(10,1,11) + 2 x(10,1,12) + 8 x(10,2,4)
   + 8 x(10,2,5) + 8 x(10,2,6) - d(10) = 0
 lnkXD(11): 3 x(11,0,1) + 3 x(11,0,2) + 4 x(11,1,1) - d(11) = 0
 lnkXD(12): 3 x(12,0,4) - d(12) = 0
 lnkXD(13): 4 x(13,0,1) + 4 x(13,0,2) + 4 x(13,0,3) + 4 x(13,1,1)
   + 4 x(13,1,2) + 4 x(13,1,3) - d(13) = 0
 lnkXD(14): x(14,0,3) + x(14,0,4) - d(14) = 0
 lnkXD(15): 6 x(15,0,4) + 6 x(15,0,5) + 7 x(15,1,4) - d(15) = 0
 lnkXD(16): x(16,0,7) + x(16,0,8) + x(16,0,9) + x(16,0,10) + x(16,0,11)
   + x(16,0,12) + 4 x(16,1,7) + 4 x(16,1,8) + 4 x(16,1,9) - d(16) = 0
 lnkXD(17): x(17,0,6) + x(17,0,7) + x(17,0,8) + x(17,0,9) + x(17,0,10)
   + x(17,0,11) + x(17,0,12) + x(17,0,13) + x(17,0,14) + x(17,0,15)
   + x(17,0,16) + 6 x(17,1,6) + 6 x(17,1,7) + 6 x(17,1,8) + 6 x(17,1,9)
   + 6 x(17,1,10) + 6 x(17,1,11) + 10 x(17,2,6) + 10 x(17,2,7) - d(17) = 0
 lnkXD(18): x(18,0,7) - d(18) = 0
 lnkXD(19): 3 x(19,0,4) + 3 x(19,0,5) + 3 x(19,0,6) + 3 x(19,0,7)
   + 3 x(19,0,8) - d(19) = 0
 lnkXD(20): 2 x(20,0,10) + 2 x(20,0,11) - d(20) = 0
 lnkXD(21): 4 x(21,0,6) + 4 x(21,0,7) - d(21) = 0
 lnkXD(22): x(22,0,10) + x(22,0,11) + x(22,0,12) + x(22,0,13)
   + 4 x(22,1,10) - d(22) = 0
 lnkXD(23): 5 x(23,0,8) - d(23) = 0
 lnkXD(24): x(24,0,10) + x(24,0,11) + x(24,1,10) + x(24,1,11) - d(24) = 0
 lnkXD(25): 4 x(25,0,13) - d(25) = 0
 lnkXD(26): x(26,0,12) + x(26,0,13) + x(26,0,14) + x(26,0,15) + x(26,0,16)
   + 4 x(26,1,12) + 4 x(26,1,13) + 5 x(26,2,12) - d(26) = 0
 lnkXD(27): 3 x(27,0,11) + 3 x(27,0,12) + 3 x(27,0,13) + 3 x(27,0,14)
   + 5 x(27,1,11) + 5 x(27,1,12) - d(27) = 0
 lnkXD(28): x(28,0,14) + x(28,0,15) + x(28,0,16) + x(28,0,17)
   + 3 x(28,1,14) + 3 x(28,1,15) - d(28) = 0
 lnkXD(29): x(29,0,17) - d(29) = 0
 lnkXD(30): 6 x(30,0,11) + 6 x(30,0,12) - d(30) = 0
 precT(1,5): x(1,0,0) - x(5,0,1) - 2 x(5,0,2) <= 0
 precT(1,7): x(1,0,0) - x(7,0,1) <= 0
 precT(1,13): x(1,0,0) - x(13,0,1) - 2 x(13,0,2) - 3 x(13,0,3) - x(13,1,1)
   - 2 x(13,1,2) - 3 x(13,1,3) <= 0
 precT(2,4): x(2,0,0) + 2 x(2,0,1) - x(4,0,1) - 2 x(4,0,2) - 3 x(4,0,3)
   - 4 x(4,0,4) - 5 x(4,0,5) - 6 x(4,0,6) - 7 x(4,0,7) - 8 x(4,0,8)
   - 9 x(4,0,9) - x(4,1,1) - 2 x(4,1,2) - 3 x(4,1,3) - 4 x(4,1,4)
   - 5 x(4,1,5) - 6 x(4,1,6) - 7 x(4,1,7) - 8 x(4,1,8) - 9 x(4,1,9)
   - x(4,2,1) - 2 x(4,2,2) - 3 x(4,2,3) <= 0
 precT(2,8): x(2,0,0) + 2 x(2,0,1) - x(8,0,1) - 2 x(8,0,2) - x(8,1,1)
   - 2 x(8,1,2) <= 0
 precT(2,11): x(2,0,0) + 2 x(2,0,1) - x(11,0,1) - 2 x(11,0,2) - x(11,1,1)
   <= 0
 precT(3,10): 4 x(3,0,0) - 4 x(10,0,4) - 5 x(10,0,5) - 6 x(10,0,6)
   - 7 x(10,0,7) - 8 x(10,0,8) - 9 x(10,0,9) - 10 x(10,0,10)
   - 11 x(10,0,11) - 12 x(10,0,12) - 13 x(10,0,13) - 4 x(10,1,4)
   - 5 x(10,1,5) - 6 x(10,1,6) - 7 x(10,1,7) - 8 x(10,1,8) - 9 x(10,1,9)
   - 10 x(10,1,10) - 11 x(10,1,11) - 12 x(10,1,12) - 4 x(10,2,4)
   - 5 x(10,2,5) - 6 x(10,2,6) <= 0
 precT(3,12): 4 x(3,0,0) - 4 x(12,0,4) <= 0
 precT(4,24): 3 x(4,0,1) + 4 x(4,0,2) + 5 x(4,0,3) + 6 x(4,0,4)
   + 7 x(4,0,5) + 8 x(4,0,6) + 9 x(4,0,7) + 10 x(4,0,8) + 11 x(4,0,9)
   + 3 x(4,1,1) + 4 x(4,1,2) + 5 x(4,1,3) + 6 x(4,1,4) + 7 x(4,1,5)
   + 8 x(4,1,6) + 9 x(4,1,7) + 10 x(4,1,8) + 11 x(4,1,9) + 9 x(4,2,1)
   + 10 x(4,2,2) + 11 x(4,2,3) - 10 x(24,0,10) - 11 x(24,0,11)
   - 10 x(24,1,10) - 11 x(24,1,11) <= 0
 precT(5,6): 2 x(5,0,1) + 3 x(5,0,2) - 2 x(6,0,2) - 3 x(6,0,3) - 4 x(6,0,4)
   - 5 x(6,0,5) - 6 x(6,0,6) - 7 x(6,0,7) - 2 x(6,1,2) - 3 x(6,1,3)
   - 4 x(6,1,4) - 5 x(6,1,5) <= 0
 precT(5,9): 2 x(5,0,1) + 3 x(5,0,2) - 2 x(9,0,2) - 3 x(9,0,3) <= 0
 precT(5,15): 2 x(5,0,1) + 3 x(5,0,2) - 4 x(15,0,4) - 5 x(15,0,5)
   - 4 x(15,1,4) <= 0
 precT(6,19): 3 x(6,0,2) + 4 x(6,0,3) + 5 x(6,0,4) + 6 x(6,0,5)
   + 7 x(6,0,6) + 8 x(6,0,7) + 5 x(6,1,2) + 6 x(6,1,3) + 7 x(6,1,4)
   + 8 x(6,1,5) - 4 x(19,0,4) - 5 x(19,0,5) - 6 x(19,0,6) - 7 x(19,0,7)
   - 8 x(19,0,8) <= 0
 precT(6,23): 3 x(6,0,2) + 4 x(6,0,3) + 5 x(6,0,4) + 6 x(6,0,5)
   + 7 x(6,0,6) + 8 x(6,0,7) + 5 x(6,1,2) + 6 x(6,1,3) + 7 x(6,1,4)
   + 8 x(6,1,5) - 8 x(23,0,8) <= 0
 precT(7,12): 4 x(7,0,1) - 4 x(12,0,4) <= 0
 precT(8,12): 3 x(8,0,1) + 4 x(8,0,2) + 3 x(8,1,1) + 4 x(8,1,2)
   - 4 x(12,0,4) <= 0
 precT(8,14): 3 x(8,0,1) + 4 x(8,0,2) + 3 x(8,1,1) + 4 x(8,1,2)
   - 3 x(14,0,3) - 4 x(14,0,4) <= 0
 precT(8,30): 3 x(8,0,1) + 4 x(8,0,2) + 3 x(8,1,1) + 4 x(8,1,2)
   - 11 x(30,0,11) - 12 x(30,0,12) <= 0
 precT(9,17): 6 x(9,0,2) + 7 x(9,0,3) - 6 x(17,0,6) - 7 x(17,0,7)
   - 8 x(17,0,8) - 9 x(17,0,9) - 10 x(17,0,10) - 11 x(17,0,11)
   - 12 x(17,0,12) - 13 x(17,0,13) - 14 x(17,0,14) - 15 x(17,0,15)
   - 16 x(17,0,16) - 6 x(17,1,6) - 7 x(17,1,7) - 8 x(17,1,8) - 9 x(17,1,9)
   - 10 x(17,1,10) - 11 x(17,1,11) - 6 x(17,2,6) - 7 x(17,2,7) <= 0
 precT(9,21): 6 x(9,0,2) + 7 x(9,0,3) - 6 x(21,0,6) - 7 x(21,0,7) <= 0
 precT(9,26): 6 x(9,0,2) + 7 x(9,0,3) - 12 x(26,0,12) - 13 x(26,0,13)
   - 14 x(26,0,14) - 15 x(26,0,15) - 16 x(26,0,16) - 12 x(26,1,12)
   - 13 x(26,1,13) - 12 x(26,2,12) <= 0
 precT(10,17): 5 x(10,0,4) + 6 x(10,0,5) + 7 x(10,0,6) + 8 x(10,0,7)
   + 9 x(10,0,8) + 10 x(10,0,9) + 11 x(10,0,10) + 12 x(10,0,11)
   + 13 x(10,0,12) + 14 x(10,0,13) + 6 x(10,1,4) + 7 x(10,1,5)
   + 8 x(10,1,6) + 9 x(10,1,7) + 10 x(10,1,8) + 11 x(10,1,9)
   + 12 x(10,1,10) + 13 x(10,1,11) + 14 x(10,1,12) + 12 x(10,2,4)
   + 13 x(10,2,5) + 14 x(10,2,6) - 6 x(17,0,6) - 7 x(17,0,7) - 8 x(17,0,8)
   - 9 x(17,0,9) - 10 x(17,0,10) - 11 x(17,0,11) - 12 x(17,0,12)
   - 13 x(17,0,13) - 14 x(17,0,14) - 15 x(17,0,15) - 16 x(17,0,16)
   - 6 x(17,1,6) - 7 x(17,1,7) - 8 x(17,1,8) - 9 x(17,1,9) - 10 x(17,1,10)
   - 11 x(17,1,11) - 6 x(17,2,6) - 7 x(17,2,7) <= 0
 precT(10,27): 5 x(10,0,4) + 6 x(10,0,5) + 7 x(10,0,6) + 8 x(10,0,7)
   + 9 x(10,0,8) + 10 x(10,0,9) + 11 x(10,0,10) + 12 x(10,0,11)
   + 13 x(10,0,12) + 14 x(10,0,13) + 6 x(10,1,4) + 7 x(10,1,5)
   + 8 x(10,1,6) + 9 x(10,1,7) + 10 x(10,1,8) + 11 x(10,1,9)
   + 12 x(10,1,10) + 13 x(10,1,11) + 14 x(10,1,12) + 12 x(10,2,4)
   + 13 x(10,2,5) + 14 x(10,2,6) - 11 x(27,0,11) - 12 x(27,0,12)
   - 13 x(27,0,13) - 14 x(27,0,14) - 11 x(27,1,11) - 12 x(27,1,12) <= 0
 precT(11,15): 4 x(11,0,1) + 5 x(11,0,2) + 5 x(11,1,1) - 4 x(15,0,4)
   - 5 x(15,0,5) - 4 x(15,1,4) <= 0
 precT(11,22): 4 x(11,0,1) + 5 x(11,0,2) + 5 x(11,1,1) - 10 x(22,0,10)
   - 11 x(22,0,11) - 12 x(22,0,12) - 13 x(22,0,13) - 10 x(22,1,10) <= 0
 precT(12,16): 7 x(12,0,4) - 7 x(16,0,7) - 8 x(16,0,8) - 9 x(16,0,9)
   - 10 x(16,0,10) - 11 x(16,0,11) - 12 x(16,0,12) - 7 x(16,1,7)
   - 8 x(16,1,8) - 9 x(16,1,9) <= 0
 precT(12,18): 7 x(12,0,4) - 7 x(18,0,7) <= 0
 precT(13,21): 5 x(13,0,1) + 6 x(13,0,2) + 7 x(13,0,3) + 5 x(13,1,1)
   + 6 x(13,1,2) + 7 x(13,1,3) - 6 x(21,0,6) - 7 x(21,0,7) <= 0
 precT(13,23): 5 x(13,0,1) + 6 x(13,0,2) + 7 x(13,0,3) + 5 x(13,1,1)
   + 6 x(13,1,2) + 7 x(13,1,3) - 8 x(23,0,8) <= 0
 precT(13,26): 5 x(13,0,1) + 6 x(13,0,2) + 7 x(13,0,3) + 5 x(13,1,1)
   + 6 x(13,1,2) + 7 x(13,1,3) - 12 x(26,0,12) - 13 x(26,0,13)
   - 14 x(26,0,14) - 15 x(26,0,15) - 16 x(26,0,16) - 12 x(26,1,12)
   - 13 x(26,1,13) - 12 x(26,2,12) <= 0
 precT(14,15): 4 x(14,0,3) + 5 x(14,0,4) - 4 x(15,0,4) - 5 x(15,0,5)
   - 4 x(15,1,4) <= 0
 precT(14,16): 4 x(14,0,3) + 5 x(14,0,4) - 7 x(16,0,7) - 8 x(16,0,8)
   - 9 x(16,0,9) - 10 x(16,0,10) - 11 x(16,0,11) - 12 x(16,0,12)
   - 7 x(16,1,7) - 8 x(16,1,8) - 9 x(16,1,9) <= 0
 precT(14,19): 4 x(14,0,3) + 5 x(14,0,4) - 4 x(19,0,4) - 5 x(19,0,5)
   - 6 x(19,0,6) - 7 x(19,0,7) - 8 x(19,0,8) <= 0
 precT(15,20): 10 x(15,0,4) + 11 x(15,0,5) + 11 x(15,1,4) - 10 x(20,0,10)
   - 11 x(20,0,11) <= 0
 precT(16,22): 8 x(16,0,7) + 9 x(16,0,8) + 10 x(16,0,9) + 11 x(16,0,10)
   + 12 x(16,0,11) + 13 x(16,0,12) + 11 x(16,1,7) + 12 x(16,1,8)
   + 13 x(16,1,9) - 10 x(22,0,10) - 11 x(22,0,11) - 12 x(22,0,12)
   - 13 x(22,0,13) - 10 x(22,1,10) <= 0
 precT(17,29): 7 x(17,0,6) + 8 x(17,0,7) + 9 x(17,0,8) + 10 x(17,0,9)
   + 11 x(17,0,10) + 12 x(17,0,11) + 13 x(17,0,12) + 14 x(17,0,13)
   + 15 x(17,0,14) + 16 x(17,0,15) + 17 x(17,0,16) + 12 x(17,1,6)
   + 13 x(17,1,7) + 14 x(17,1,8) + 15 x(17,1,9) + 16 x(17,1,10)
   + 17 x(17,1,11) + 16 x(17,2,6) + 17 x(17,2,7) - 17 x(29,0,17) <= 0
 precT(18,23): 8 x(18,0,7) - 8 x(23,0,8) <= 0
 precT(18,28): 8 x(18,0,7) - 14 x(28,0,14) - 15 x(28,0,15) - 16 x(28,0,16)
   - 17 x(28,0,17) - 14 x(28,1,14) - 15 x(28,1,15) <= 0
 precT(19,20): 7 x(19,0,4) + 8 x(19,0,5) + 9 x(19,0,6) + 10 x(19,0,7)
   + 11 x(19,0,8) - 10 x(20,0,10) - 11 x(20,0,11) <= 0
 precT(19,27): 7 x(19,0,4) + 8 x(19,0,5) + 9 x(19,0,6) + 10 x(19,0,7)
   + 11 x(19,0,8) - 11 x(27,0,11) - 12 x(27,0,12) - 13 x(27,0,13)
   - 14 x(27,0,14) - 11 x(27,1,11) - 12 x(27,1,12) <= 0
 precT(20,25): 12 x(20,0,10) + 13 x(20,0,11) - 13 x(25,0,13) <= 0
 precT(20,26): 12 x(20,0,10) + 13 x(20,0,11) - 12 x(26,0,12)
   - 13 x(26,0,13) - 14 x(26,0,14) - 15 x(26,0,15) - 16 x(26,0,16)
   - 12 x(26,1,12) - 13 x(26,1,13) - 12 x(26,2,12) <= 0
 precT(20,28): 12 x(20,0,10) + 13 x(20,0,11) - 14 x(28,0,14)
   - 15 x(28,0,15) - 16 x(28,0,16) - 17 x(28,0,17) - 14 x(28,1,14)
   - 15 x(28,1,15) <= 0
 precT(21,22): 10 x(21,0,6) + 11 x(21,0,7) - 10 x(22,0,10) - 11 x(22,0,11)
   - 12 x(22,0,12) - 13 x(22,0,13) - 10 x(22,1,10) <= 0
 precT(21,24): 10 x(21,0,6) + 11 x(21,0,7) - 10 x(24,0,10) - 11 x(24,0,11)
   - 10 x(24,1,10) - 11 x(24,1,11) <= 0
 precT(22,27): 11 x(22,0,10) + 12 x(22,0,11) + 13 x(22,0,12)
   + 14 x(22,0,13) + 14 x(22,1,10) - 11 x(27,0,11) - 12 x(27,0,12)
   - 13 x(27,0,13) - 14 x(27,0,14) - 11 x(27,1,11) - 12 x(27,1,12) <= 0
 precT(23,25): 13 x(23,0,8) - 13 x(25,0,13) <= 0
 precT(24,25): 11 x(24,0,10) + 12 x(24,0,11) + 11 x(24,1,10)
   + 12 x(24,1,11) - 13 x(25,0,13) <= 0
 precT(24,30): 11 x(24,0,10) + 12 x(24,0,11) + 11 x(24,1,10)
   + 12 x(24,1,11) - 11 x(30,0,11) - 12 x(30,0,12) <= 0
 precT(25,29): 17 x(25,0,13) - 17 x(29,0,17) <= 0
 precT(26,29): 13 x(26,0,12) + 14 x(26,0,13) + 15 x(26,0,14)
   + 16 x(26,0,15) + 17 x(26,0,16) + 16 x(26,1,12) + 17 x(26,1,13)
   + 17 x(26,2,12) - 17 x(29,0,17) <= 0
 precT(27,28): 14 x(27,0,11) + 15 x(27,0,12) + 16 x(27,0,13)
   + 17 x(27,0,14) + 16 x(27,1,11) + 17 x(27,1,12) - 14 x(28,0,14)
   - 15 x(28,0,15) - 16 x(28,0,16) - 17 x(28,0,17) - 14 x(28,1,14)
   - 15 x(28,1,15) <= 0
 precT(28,31): 15 x(28,0,14) + 16 x(28,0,15) + 17 x(28,0,16)
   + 18 x(28,0,17) + 17 x(28,1,14) + 18 x(28,1,15) - 18 x(31,0,18) <= 0
 precT(29,31): 18 x(29,0,17) - 18 x(31,0,18) <= 0
 precT(30,31): 17 x(30,0,11) + 18 x(30,0,12) - 18 x(31,0,18) <= 0
 selU(0): u(0,0) = 1
 selU(1): u(1,0) + u(1,1) + u(1,2) = 1
 selU(2): u(2,0) + u(2,1) + u(2,2) = 1
 selU(3): u(3,0) + u(3,1) + u(3,2) = 1
 selU(4): u(4,0) + u(4,1) + u(4,2) = 1
 selU(5): u(5,0) + u(5,1) + u(5,2) = 1
 selU(6): u(6,0) + u(6,1) + u(6,2) = 1
 selU(7): u(7,0) + u(7,1) + u(7,2) = 1
 selU(8): u(8,0) + u(8,1) + u(8,2) = 1
 selU(9): u(9,0) + u(9,1) + u(9,2) = 1
 selU(10): u(10,0) + u(10,1) + u(10,2) = 1
 selU(11): u(11,0) + u(11,1) + u(11,2) = 1
 selU(12): u(12,0) + u(12,1) + u(12,2) = 1
 selU(13): u(13,0) + u(13,1) + u(13,2) = 1
 selU(14): u(14,0) + u(14,1) + u(14,2) = 1
 selU(15): u(15,0) + u(15,1) + u(15,2) = 1
 selU(16): u(16,0) + u(16,1) + u(16,2) = 1
 selU(17): u(17,0) + u(17,1) + u(17,2) = 1
 selU(18): u(18,0) + u(18,1) + u(18,2) = 1
 selU(19): u(19,0) + u(19,1) + u(19,2) = 1
 selU(20): u(20,0) + u(20,1) + u(20,2) = 1
 selU(21): u(21,0) + u(21,1) + u(21,2) = 1
 selU(22): u(22,0) + u(22,1) + u(22,2) = 1
 selU(23): u(23,0) + u(23,1) + u(23,2) = 1
 selU(24): u(24,0) + u(24,1) + u(24,2) = 1
 selU(25): u(25,0) + u(25,1) + u(25,2) = 1
 selU(26): u(26,0) + u(26,1) + u(26,2) = 1
 selU(27): u(27,0) + u(27,1) + u(27,2) = 1
 selU(28): u(28,0) + u(28,1) + u(28,2) = 1
 selU(29): u(29,0) + u(29,1) + u(29,2) = 1
 selU(30): u(30,0) + u(30,1) + u(30,2) = 1
 selU(31): u(31,0) = 1
Bounds
 y(0) = 0
 y(1) = 0
 y(3) = 0
 1 <= y(4) <= 9
 1 <= y(5) <= 2
 2 <= y(6) <= 7
 y(7) = 1
 1 <= y(8) <= 2
 2 <= y(9) <= 3
 4 <= y(10) <= 13
 1 <= y(11) <= 2
 y(12) = 4
 1 <= y(13) <= 3
 3 <= y(14) <= 4
 4 <= y(15) <= 5
 7 <= y(16) <= 12
 6 <= y(17) <= 16
 y(18) = 7
 4 <= y(19) <= 8
 10 <= y(20) <= 11
 6 <= y(21) <= 7
 10 <= y(22) <= 13
 y(23) = 8
 10 <= y(24) <= 11
 y(25) = 13
 12 <= y(26) <= 16
 11 <= y(27) <= 14
 14 <= y(28) <= 17
 y(29) = 17
 11 <= y(30) <= 12
 y(31) = 18
 d(0) = 0
 1 <= d(1) <= 9
 1 <= d(2) <= 7
 4 <= d(3) <= 10
 2 <= d(4) <= 8
 1 <= d(5) <= 9
 1 <= d(6) <= 9
 3 <= d(7) <= 7
 2 <= d(8) <= 6
 4 <= d(9) <= 10
 1 <= d(10) <= 8
 3 <= d(11) <= 9
 3 <= d(12) <= 10
 4 <= d(13) <= 9
 1 <= d(14) <= 10
 6 <= d(15) <= 9
 1 <= d(16) <= 9
 1 <= d(17) <= 10
 1 <= d(18) <= 7
 3 <= d(19) <= 10
 2 <= d(20) <= 8
 4 <= d(21) <= 6
 1 <= d(22) <= 9
 5 <= d(23) <= 10
 1 <= d(24) <= 5
 4 <= d(25) <= 10
 1 <= d(26) <= 5
 3 <= d(27) <= 10
 1 <= d(28) <= 9
 1 <= d(29) <= 10
 6 <= d(30) <= 8
 d(31) = 0
 releaseDateAndCP = 1
Binaries
 x(0,0,0) x(1,0,0) x(2,0,0) x(2,0,1) x(3,0,0) x(4,0,1) x(4,0,2) x(4,0,3)
 x(4,0,4) x(4,0,5) x(4,0,6) x(4,0,7) x(4,0,8) x(4,0,9) x(4,1,1) x(4,1,2)
 x(4,1,3) x(4,1,4) x(4,1,5) x(4,1,6) x(4,1,7) x(4,1,8) x(4,1,9) x(4,2,1)
 x(4,2,2) x(4,2,3) x(5,0,1) x(5,0,2) x(6,0,2) x(6,0,3) x(6,0,4) x(6,0,5)
 x(6,0,6) x(6,0,7) x(6,1,2) x(6,1,3) x(6,1,4) x(6,1,5) x(7,0,1) x(8,0,1)
 x(8,0,2) x(8,1,1) x(8,1,2) x(9,0,2) x(9,0,3) x(10,0,4) x(10,0,5) x(10,0,6)
 x(10,0,7) x(10,0,8) x(10,0,9) x(10,0,10) x(10,0,11) x(10,0,12) x(10,0,13)
 x(10,1,4) x(10,1,5) x(10,1,6) x(10,1,7) x(10,1,8) x(10,1,9) x(10,1,10)
 x(10,1,11) x(10,1,12) x(10,2,4) x(10,2,5) x(10,2,6) x(11,0,1) x(11,0,2)
 x(11,1,1) x(12,0,4) x(13,0,1) x(13,0,2) x(13,0,3) x(13,1,1) x(13,1,2)
 x(13,1,3) x(14,0,3) x(14,0,4) x(15,0,4) x(15,0,5) x(15,1,4) x(16,0,7)
 x(16,0,8) x(16,0,9) x(16,0,10) x(16,0,11) x(16,0,12) x(16,1,7) x(16,1,8)
 x(16,1,9) x(17,0,6) x(17,0,7) x(17,0,8) x(17,0,9) x(17,0,10) x(17,0,11)
 x(17,0,12) x(17,0,13) x(17,0,14) x(17,0,15) x(17,0,16) x(17,1,6) x(17,1,7)
 x(17,1,8) x(17,1,9) x(17,1,10) x(17,1,11) x(17,2,6) x(17,2,7) x(18,0,7)
 x(19,0,4) x(19,0,5) x(19,0,6) x(19,0,7) x(19,0,8) x(20,0,10) x(20,0,11)
 x(21,0,6) x(21,0,7) x(22,0,10) x(22,0,11) x(22,0,12) x(22,0,13) x(22,1,10)
 x(23,0,8) x(24,0,10) x(24,0,11) x(24,1,10) x(24,1,11) x(25,0,13)
 x(26,0,12) x(26,0,13) x(26,0,14) x(26,0,15) x(26,0,16) x(26,1,12)
 x(26,1,13) x(26,2,12) x(27,0,11) x(27,0,12) x(27,0,13) x(27,0,14)
 x(27,1,11) x(27,1,12) x(28,0,14) x(28,0,15) x(28,0,16) x(28,0,17)
 x(28,1,14) x(28,1,15) x(29,0,17) x(30,0,11) x(30,0,12) x(31,0,18) y(2)
 u(0,0) u(1,0) u(1,1) u(1,2) u(2,0) u(2,1) u(2,2) u(3,0) u(3,1) u(3,2)
 u(4,0) u(4,1) u(4,2) u(5,0) u(5,1) u(5,2) u(6,0) u(6,1) u(6,2) u(7,0)
 u(7,1) u(7,2) u(8,0) u(8,1) u(8,2) u(9,0) u(9,1) u(9,2) u(10,0) u(10,1)
 u(10,2) u(11,0) u(11,1) u(11,2) u(12,0) u(12,1) u(12,2) u(13,0) u(13,1)
 u(13,2) u(14,0) u(14,1) u(14,2) u(15,0) u(15,1) u(15,2) u(16,0) u(16,1)
 u(16,2) u(17,0) u(17,1) u(17,2) u(18,0) u(18,1) u(18,2) u(19,0) u(19,1)
 u(19,2) u(20,0) u(20,1) u(20,2) u(21,0) u(21,1) u(21,2) u(22,0) u(22,1)
 u(22,2) u(23,0) u(23,1) u(23,2) u(24,0) u(24,1) u(24,2) u(25,0) u(25,1)
 u(25,2) u(26,0) u(26,1) u(26,2) u(27,0) u(27,1) u(27,2) u(28,0) u(28,1)
 u(28,2) u(29,0) u(29,1) u(29,2) u(30,0) u(30,1) u(30,2) u(31,0)
Generals
 y(0) y(1) y(3) y(4) y(5) y(6) y(7) y(8) y(9) y(10) y(11) y(12) y(13) y(14)
 y(15) y(16) y(17) y(18) y(19) y(20) y(21) y(22) y(23) y(24) y(25) y(26)
 y(27) y(28) y(29) y(30) y(31) d(0) d(1) d(2) d(3) d(4) d(5) d(6) d(7) d(8)
 d(9) d(10) d(11) d(12) d(13) d(14) d(15) d(16) d(17) d(18) d(19) d(20)
 d(21) d(22) d(23) d(24) d(25) d(26) d(27) d(28) d(29) d(30) d(31)
 releaseDateAndCP
End
